p tw 28 36
1 2
2 13
3 4
4 20
5 6
6 20
7 8
8 20
9 10
10 20
11 12
12 20
13 22
14 15
15 20
16 17
17 20
18 19
19 20
20 21
22 23
22 18
23 24
24 25
24 18
25 26
26 27
26 3
26 5
26 7
26 9
26 11
26 14
26 16
27 28
28 20
